(set-logic QF_UF)
(declare-fun A0 () Bool)
(declare-fun A1 () Bool)
(declare-fun A2 () Bool)
(declare-fun A4 () Bool)
(declare-fun A5 () Bool)
(declare-fun A6 () Bool)
(declare-fun A7 () Bool)
(declare-fun A8 () Bool)
(declare-fun A9 () Bool)
(declare-fun A10 () Bool)
(declare-fun A11 () Bool)
(declare-fun A12 () Bool)
(declare-fun A13 () Bool)
(declare-fun A15 () Bool)
(declare-fun A16 () Bool)
(declare-fun A17 () Bool)
(declare-fun A18 () Bool)
(declare-fun A19 () Bool)
(declare-fun A20 () Bool)
(declare-fun A21 () Bool)
(declare-fun A23 () Bool)
(declare-fun A24 () Bool)
(declare-fun A25 () Bool)
(declare-fun A26 () Bool)
(declare-fun A27 () Bool)
(declare-fun A29 () Bool)
(assert (let ((.def_0 (not A27))) (let ((.def_1 (and .def_0 A16))) (let ((.def_2 (or A0 A29))) (let ((.def_3 (and .def_2 .def_1))) (let ((.def_4 (not A21))) (let ((.def_5 (and A19 .def_4))) (let ((.def_6 (or A6 A4))) (let ((.def_7 (not .def_6))) (let ((.def_8 (and .def_7 .def_5))) (let ((.def_9 (not .def_8))) (let ((.def_10 (and .def_9 .def_3))) (let ((.def_11 (or A12 A24))) (let ((.def_12 (not .def_11))) (let ((.def_13 (not A6))) (let ((.def_14 (not A4))) (let ((.def_15 (and .def_14 .def_13))) (let ((.def_16 (or .def_15 .def_12))) (let ((.def_17 (not .def_16))) (let ((.def_18 (not A20))) (let ((.def_19 (not A9))) (let ((.def_20 (and .def_19 .def_18))) (let ((.def_21 (not A17))) (let ((.def_22 (or .def_4 .def_21))) (let ((.def_23 (not .def_22))) (let ((.def_24 (or .def_23 .def_20))) (let ((.def_25 (or .def_24 .def_17))) (let ((.def_26 (and .def_25 .def_10))) (let ((.def_27 (not A2))) (let ((.def_28 (not A19))) (let ((.def_29 (or .def_28 .def_27))) (let ((.def_30 (not .def_29))) (let ((.def_31 (and .def_27 A16))) (let ((.def_32 (and .def_31 .def_30))) (let ((.def_33 (not A10))) (let ((.def_34 (and .def_4 .def_33))) (let ((.def_35 (not .def_34))) (let ((.def_36 (not A23))) (let ((.def_37 (and .def_36 A2))) (let ((.def_38 (and .def_37 .def_35))) (let ((.def_39 (and .def_38 .def_32))) (let ((.def_40 (not .def_39))) (let ((.def_41 (not A13))) (let ((.def_42 (or .def_41 .def_13))) (let ((.def_43 (not .def_42))) (let ((.def_44 (and A29 A6))) (let ((.def_45 (or .def_44 .def_43))) (let ((.def_46 (not A29))) (let ((.def_47 (and A25 .def_46))) (let ((.def_48 (not .def_47))) (let ((.def_49 (or .def_19 A19))) (let ((.def_50 (not .def_49))) (let ((.def_51 (and .def_50 .def_48))) (let ((.def_52 (and .def_51 .def_45))) (let ((.def_53 (and .def_52 .def_40))) (let ((.def_54 (or .def_53 .def_26))) (let ((.def_55 (not .def_54))) (let ((.def_56 (not A5))) (let ((.def_57 (= A1 .def_56))) (let ((.def_58 (not .def_57))) (let ((.def_59 (not A8))) (let ((.def_60 (= .def_59 .def_46))) (let ((.def_61 (not .def_60))) (let ((.def_62 (or .def_61 .def_58))) (let ((.def_63 (not .def_62))) (let ((.def_64 (or .def_14 A21))) (let ((.def_65 (not .def_64))) (let ((.def_66 (not A15))) (let ((.def_67 (or .def_36 .def_66))) (let ((.def_68 (not .def_67))) (let ((.def_69 (and .def_68 .def_65))) (let ((.def_70 (not .def_69))) (let ((.def_71 (or .def_70 .def_63))) (let ((.def_72 (not .def_71))) (let ((.def_73 (not A7))) (let ((.def_74 (= .def_73 .def_59))) (let ((.def_75 (not .def_74))) (let ((.def_76 (or A5 A19))) (let ((.def_77 (not .def_76))) (let ((.def_78 (or .def_77 .def_75))) (let ((.def_79 (not A1))) (let ((.def_80 (or .def_66 .def_79))) (let ((.def_81 (not .def_80))) (let ((.def_82 (not A24))) (let ((.def_83 (or .def_82 A26))) (let ((.def_84 (= .def_83 .def_81))) (let ((.def_85 (and .def_84 .def_78))) (let ((.def_86 (not .def_85))) (let ((.def_87 (or .def_86 .def_72))) (let ((.def_88 (not A11))) (let ((.def_89 (and .def_88 A20))) (let ((.def_90 (and A25 A15))) (let ((.def_91 (and .def_90 .def_89))) (let ((.def_92 (not .def_91))) (let ((.def_93 (and A20 .def_27))) (let ((.def_94 (not .def_93))) (let ((.def_95 (or A4 .def_14))) (let ((.def_96 (= .def_95 .def_94))) (let ((.def_97 (or .def_96 .def_92))) (let ((.def_98 (and .def_28 .def_46))) (let ((.def_99 (or .def_28 A17))) (let ((.def_100 (= .def_99 .def_98))) (let ((.def_101 (not A16))) (let ((.def_102 (or .def_101 .def_73))) (let ((.def_103 (not .def_102))) (let ((.def_104 (or .def_0 A18))) (let ((.def_105 (or .def_104 .def_103))) (let ((.def_106 (not .def_105))) (let ((.def_107 (= .def_106 .def_100))) (let ((.def_108 (not .def_107))) (let ((.def_109 (and .def_108 .def_97))) (let ((.def_110 (not .def_109))) (let ((.def_111 (or .def_110 .def_87))) (let ((.def_112 (and .def_111 .def_55))) .def_112))))))))))))))))))))))))))))))))))))))))))))))))))))))))))))))))))))))))))))))))))))))))))))))))))))))))))))))))))
(check-sat)
